100 85565

 808 942
34 745
892 606
208 967
813 763
199 762
592 794
583 744
155 46
590 886
78 508
172 558
289 971
545 526
812 597
788 831
879 840
420 3
7 28
160 381
240 157
963 855
423 914
989 931
536 511
726 333
70 844
880 687
216 114
104 389
727 487
54 843
806 250
330 571
848 715
203 315
288 239
45 234
829 303
198 607
216 991
481 653
309 334
896 113
435 621
332 362
696 857
27 801
166 97
318 958
274 847
383 16
365 556
103 954
960 376
503 742
845 390
373 620
616 217
926 399
245 260
817 824
169 320
628 196
653 478
418 418
356 475
478 607
125 568
537 544
706 231
896 884
612 521
402 703
517 873
531 200
682 846
786 673
254 599
121 21
32 311
661 588
778 953
37 898
689 653
342 638
13 763
183 900
657 596
265 434
88 371
940 560
462 891
46 78
392 542
119 285
933 648
531 140
447 553
732 998
